(set-logic QF_NIA)
(set-info :source |
    Sequential equivalence checking.
    Calypto Design Systems, Inc. <www.calypto.com>
  |)
(set-info :smt-lib-version 2.0)
(set-info :category "industrial")
(set-info :status unsat)
(declare-fun P_2 () Bool)
(declare-fun P_3 () Bool)
(declare-fun P_4 () Bool)
(declare-fun P_5 () Int)
(declare-fun P_6 () Int)
(declare-fun P_7 () Int)
(declare-fun P_8 () Bool)
(declare-fun P_9 () Bool)
(declare-fun P_10 () Bool)
(declare-fun P_11 () Int)
(declare-fun P_12 () Int)
(assert (<= 0 P_5))
(assert (<= P_5 255))
(assert (<= 0 P_6))
(assert (<= P_6 255))
(assert (<= 0 P_7))
(assert (<= P_7 255))
(assert (<= 0 P_11))
(assert (<= P_11 255))
(assert (<= 0 P_12))
(assert (<= P_12 255))
(declare-fun dz () Int)
(declare-fun rz () Int)
(assert (let ((?v_0 (ite (not (or (or (not P_8) P_9) P_10)) P_11 P_12)) (?v_2 (* P_5 (+ P_6 P_7))) (?v_1 (not P_2))) (= (+ (* 256 dz) rz) (- (ite (not P_4) (ite (not P_3) (ite ?v_1 ?v_0 ?v_2) ?v_0) ?v_0) (ite (not (or (or ?v_1 P_3) P_4)) ?v_2 ?v_0)))))
(assert (> rz 0))
(assert (< rz 256))
(check-sat)
(exit)
